decision_x1=[0,2];
decision_x2=[0,2];
decision_x3=[0,2];
decision_x4=[0,2];
decision_x5=[0,2];
decision_x6=[0,2];
decision_x7=[0,2];
decision_x8=[0,2];
random_y1=[0,2];
random_y2=[0,2];
constraint_x3_x1=[
0,0,8.5|
0,1,1.2|
0,2,0.41|
1,0,0.47|
1,1,1.4|
1,2,8.9|
2,0,1.2|
2,1,1.1|
2,2,7|
];
constraint_x3_x2=[
0,0,9.6|
0,1,3.4|
0,2,2.4|
1,0,8.8|
1,1,1.9|
1,2,9.6|
2,0,7.6|
2,1,3.5|
2,2,6.6|
];
constraint_x4_x3=[
0,0,0.16|
0,1,1.8|
0,2,7.6|
1,0,6.7|
1,1,1.9|
1,2,8.2|
2,0,7.6|
2,1,7.6|
2,2,7.5|
];
constraint_x5_x2=[
0,0,0.012|
0,1,9.6|
0,2,3.8|
1,0,3.9|
1,1,6.5|
1,2,2.4|
2,0,0.54|
2,1,0.87|
2,2,9.7|
];
constraint_x5_x3=[
0,0,0.98|
0,1,2.6|
0,2,6|
1,0,3.6|
1,1,10|
1,2,4.4|
2,0,1.1|
2,1,2.9|
2,2,0.31|
];
constraint_x6_x1=[
0,0,8.4|
0,1,9.6|
0,2,5|
1,0,6|
1,1,9.9|
1,2,9.3|
2,0,3.5|
2,1,0.1|
2,2,8|
];
constraint_x6_x2=[
0,0,7.7|
0,1,0.92|
0,2,2.7|
1,0,1.5|
1,1,7.9|
1,2,5.3|
2,0,7.2|
2,1,8.4|
2,2,6.4|
];
constraint_x6_x3=[
0,0,7.8|
0,1,2.3|
0,2,3.7|
1,0,7.5|
1,1,7.4|
1,2,2.9|
2,0,1.5|
2,1,4|
2,2,0.29|
];
constraint_x7_x1=[
0,0,2.6|
0,1,0.29|
0,2,7|
1,0,3.2|
1,1,5.5|
1,2,7.7|
2,0,9.2|
2,1,2.1|
2,2,1.8|
];
constraint_x7_x3=[
0,0,8.3|
0,1,2.5|
0,2,0.49|
1,0,1.8|
1,1,1.8|
1,2,4.2|
2,0,0.15|
2,1,2.3|
2,2,3.7|
];
constraint_x7_x6=[
0,0,8.2|
0,1,9|
0,2,6.3|
1,0,8.7|
1,1,6.9|
1,2,1.3|
2,0,8.7|
2,1,1.7|
2,2,0.25|
];
constraint_x8_x2=[
0,0,5.2|
0,1,7.7|
0,2,1.1|
1,0,6.3|
1,1,5.3|
1,2,1.3|
2,0,9.3|
2,1,6|
2,2,0.027|
];
constraint_x8_x3=[
0,0,4.7|
0,1,0.26|
0,2,8.8|
1,0,6.2|
1,1,2.1|
1,2,9.1|
2,0,0.067|
2,1,3.6|
2,2,1.5|
];
constraint_x8_x6=[
0,0,9|
0,1,4|
0,2,1.3|
1,0,6|
1,1,7.9|
1,2,7.3|
2,0,8.6|
2,1,3|
2,2,1.2|
];
constraint_x1_y1=[
0,0,8.4|
0,1,1.6|
0,2,8.2|
1,0,0.052|
1,1,4.5|
1,2,5.6|
2,0,9.9|
2,1,5.6|
2,2,6.1|
];
constraint_x2_y2=[
0,0,1.4|
0,1,0.54|
0,2,9.8|
1,0,0.21|
1,1,6.1|
1,2,5.6|
2,0,9.5|
2,1,4.6|
2,2,7.3|
];
initial_distribution_y1=[0.34,0.24,0.41];
initial_distribution_y2=[0.37,0.47,0.17];
transition_y1=[
0.36,0.19,0.45|
0.24,0.5,0.26|
0.15,0.68,0.17|
];
transition_y2=[
0.46,0.35,0.19|
0.46,0.52,0.019|
0.25,0.45,0.3|
];
